70
2 0 8
2 1 3
3 0 8
3 2 2
4 2 3
4 3 5
5 0 1
5 2 8
5 4 6
6 0 6
6 1 7
6 2 9
6 3 4
6 5 7
7 0 2
7 3 8
7 4 8
7 6 4
8 0 2
8 2 4
8 3 7
8 4 3
8 5 3
8 6 5
8 7 3
9 0 8
9 1 5
9 2 10
9 5 1
9 7 1
9 8 3
10 0 5
10 1 1
10 2 3
10 3 3
10 4 10
10 5 3
10 6 7
10 7 1
11 0 1
11 2 4
11 3 3
11 4 1
11 5 6
11 7 10
11 9 5
11 10 3
12 0 3
12 1 2
12 2 4
12 3 3
12 4 3
12 5 1
12 6 9
12 7 10
12 8 2
12 9 6
12 10 10
12 11 5
13 0 6
13 2 1
13 4 7
13 5 5
13 6 9
13 7 10
13 9 2
13 10 2
13 11 6
14 0 2
14 1 9
14 2 3
14 5 4
14 6 4
14 7 2
14 8 4
14 9 9
14 10 6
14 11 7
14 12 8
14 13 10
15 1 2
15 2 3
15 3 9
15 5 5
15 6 6
15 7 8
15 8 6
15 9 3
15 11 5
15 12 2
15 13 10
15 14 1
16 0 3
16 1 3
16 2 9
16 3 5
16 4 2
16 6 4
16 7 2
16 8 7
16 9 7
16 10 6
16 11 7
16 12 7
16 13 7
16 14 1
17 0 1
17 1 1
17 2 7
17 3 4
17 4 2
17 6 4
17 7 9
17 8 10
17 9 9
17 10 10
17 11 2
17 12 2
17 13 10
17 15 8
17 16 5
18 0 7
18 1 4
18 2 9
18 3 9
18 4 10
18 5 8
18 6 5
18 7 6
18 9 4
18 10 7
18 11 6
18 12 3
18 13 2
18 14 3
18 15 8
18 16 5
19 0 3
19 1 7
19 3 1
19 4 9
19 5 7
19 7 4
19 8 4
19 9 4
19 10 1
19 11 2
19 12 5
19 13 7
19 14 5
19 15 7
19 16 6
19 17 3
19 18 4
20 1 5
20 2 2
20 3 5
20 5 6
20 6 8
20 7 7
20 8 8
20 9 1
20 10 10
20 11 7
20 12 5
20 13 5
20 14 7
20 15 2
20 17 2
20 18 7
20 19 2
21 0 7
21 1 3
21 3 6
21 4 6
21 5 8
21 6 10
21 7 9
21 8 6
21 9 7
21 11 10
21 12 5
21 13 3
21 14 2
21 15 6
21 16 6
21 18 6
21 19 4
21 20 6
22 0 3
22 1 7
22 2 4
22 3 3
22 5 2
22 6 1
22 7 5
22 8 6
22 10 7
22 11 7
22 12 2
22 14 6
22 16 8
22 18 5
22 19 9
22 20 3
22 21 5
23 1 7
23 2 4
23 4 9
23 5 5
23 6 1
23 7 1
23 9 6
23 11 6
23 13 3
23 14 1
23 15 10
23 16 1
23 18 8
23 20 1
23 21 4
23 22 4
24 0 1
24 1 10
24 2 3
24 3 1
24 4 4
24 5 3
24 6 7
24 8 4
24 9 2
24 10 2
24 11 8
24 12 9
24 13 4
24 14 10
24 15 1
24 16 6
24 17 5
24 19 8
24 20 3
24 21 7
24 22 7
25 1 4
25 2 1
25 4 1
25 5 1
25 6 2
25 7 4
25 8 7
25 9 7
25 10 5
25 11 4
25 12 2
25 13 4
25 14 2
25 16 1
25 18 6
25 19 2
25 20 7
25 21 3
25 22 6
25 23 10
25 24 5
26 0 6
26 1 4
26 3 7
26 5 3
26 6 7
26 7 1
26 8 9
26 11 2
26 12 9
26 13 1
26 14 10
26 15 8
26 16 4
26 18 8
26 19 6
26 20 4
26 21 2
26 23 5
26 24 9
26 25 3
27 0 8
27 1 3
27 2 1
27 4 8
27 6 7
27 7 6
27 9 2
27 10 2
27 11 5
27 12 3
27 13 4
27 14 8
27 15 10
27 16 1
27 18 8
27 21 5
27 22 2
27 25 4
27 26 4
28 0 4
28 1 2
28 2 8
28 4 2
28 6 7
28 7 2
28 9 3
28 10 2
28 13 4
28 14 2
28 15 3
28 16 3
28 17 10
28 18 1
28 19 7
28 20 9
28 21 1
28 24 7
28 25 9
28 27 10
29 0 3
29 1 4
29 2 6
29 3 5
29 5 9
29 6 9
29 9 10
29 10 8
29 11 9
29 12 4
29 13 8
29 14 8
29 16 2
29 17 4
29 19 2
29 21 6
29 22 5
29 24 6
29 25 10
29 27 8
29 28 10
30 0 4
30 1 2
30 2 2
30 4 1
30 5 2
30 6 7
30 7 1
30 8 8
30 10 4
30 11 7
30 12 9
30 13 2
30 15 8
30 16 8
30 17 3
30 18 7
30 19 10
30 20 1
30 21 9
30 22 8
30 23 2
30 26 7
30 27 9
30 28 6
30 29 3
31 1 7
31 2 1
31 3 8
31 4 2
31 5 1
31 6 2
31 7 3
31 8 5
31 9 10
31 10 9
31 11 1
31 12 9
31 13 2
31 15 5
31 16 10
31 17 8
31 18 2
31 20 8
31 21 2
31 24 5
31 25 7
31 26 4
31 27 3
31 28 9
31 29 5
32 0 1
32 1 10
32 3 10
32 4 9
32 5 1
32 6 8
32 8 10
32 9 10
32 10 10
32 12 9
32 13 1
32 15 1
32 16 2
32 17 3
32 18 6
32 19 4
32 20 10
32 21 8
32 22 9
32 23 6
32 25 8
32 26 10
32 27 3
32 28 6
32 29 2
32 30 5
32 31 9
33 0 10
33 1 9
33 2 8
33 4 1
33 6 5
33 9 6
33 10 8
33 11 4
33 12 9
33 13 8
33 14 3
33 15 4
33 16 6
33 17 6
33 20 1
33 21 7
33 22 5
33 23 8
33 24 10
33 25 4
33 26 5
33 27 9
33 28 7
33 30 7
33 31 7
34 0 10
34 2 6
34 3 4
34 4 3
34 5 7
34 6 7
34 8 3
34 9 9
34 10 8
34 11 2
34 12 1
34 13 7
34 14 3
34 16 5
34 18 1
34 19 10
34 20 8
34 21 9
34 22 6
34 23 5
34 24 7
34 25 5
34 26 1
34 27 10
34 28 2
34 29 6
34 30 4
34 32 4
34 33 7
35 0 7
35 1 10
35 2 10
35 3 9
35 4 4
35 5 2
35 6 8
35 8 9
35 9 9
35 10 10
35 11 6
35 12 7
35 13 4
35 15 9
35 18 9
35 20 9
35 22 10
35 23 8
35 24 9
35 25 3
35 27 9
35 28 7
35 30 10
35 31 10
35 32 6
35 33 1
36 0 2
36 3 2
36 6 9
36 7 3
36 8 1
36 10 8
36 11 4
36 12 8
36 13 5
36 15 5
36 16 1
36 18 9
36 19 1
36 20 3
36 21 1
36 23 8
36 24 8
36 25 5
36 26 1
36 28 2
36 29 8
36 30 7
36 32 4
36 33 6
36 34 7
37 0 2
37 1 3
37 3 8
37 4 10
37 7 9
37 10 9
37 11 6
37 12 10
37 14 2
37 17 2
37 19 10
37 20 7
37 21 5
37 22 4
37 23 1
37 25 6
37 27 3
37 28 8
37 30 6
37 31 8
37 32 2
37 33 2
37 34 3
37 35 9
37 36 9
38 0 2
38 1 3
38 2 2
38 4 2
38 5 6
38 6 5
38 7 10
38 9 1
38 10 6
38 11 3
38 12 9
38 13 4
38 14 4
38 15 4
38 17 9
38 18 3
38 20 5
38 21 4
38 22 6
38 23 2
38 24 6
38 30 10
38 31 7
38 34 6
38 35 2
38 36 4
38 37 9
39 0 7
39 1 4
39 2 1
39 3 3
39 4 2
39 5 9
39 6 10
39 7 7
39 8 3
39 9 3
39 12 6
39 13 7
39 14 4
39 15 2
39 18 9
39 19 5
39 20 6
39 21 9
39 22 5
39 23 2
39 26 3
39 27 1
39 28 9
39 29 2
39 31 7
39 33 4
39 34 5
39 35 9
39 36 4
39 37 4
39 38 5
40 0 7
40 1 3
40 3 4
40 4 5
40 6 6
40 7 8
40 8 5
40 9 4
40 10 9
40 11 10
40 12 2
40 13 2
40 14 1
40 15 10
40 16 9
40 17 4
40 19 2
40 20 5
40 21 10
40 22 6
40 23 3
40 25 8
40 28 4
40 29 3
40 30 4
40 31 8
40 32 3
40 33 10
40 34 10
40 35 3
40 36 6
40 37 10
40 38 6
40 39 7
41 0 6
41 2 7
41 3 2
41 5 10
41 7 5
41 9 9
41 10 10
41 12 5
41 13 8
41 14 6
41 16 5
41 17 9
41 18 7
41 20 5
41 22 4
41 24 5
41 25 4
41 26 9
41 27 9
41 28 5
41 29 5
41 30 10
41 31 1
41 32 10
41 33 1
41 34 2
41 35 8
41 36 1
41 37 3
41 38 6
42 0 9
42 2 10
42 3 3
42 4 5
42 7 10
42 9 8
42 11 2
42 12 3
42 13 3
42 14 7
42 15 6
42 19 10
42 20 7
42 21 4
42 22 10
42 24 6
42 25 4
42 26 4
42 27 1
42 28 5
42 30 4
42 31 4
42 35 7
42 36 7
42 38 7
42 39 3
42 40 6
43 0 5
43 1 7
43 2 1
43 3 1
43 4 1
43 5 8
43 6 5
43 8 8
43 9 7
43 10 6
43 13 1
43 14 3
43 15 9
43 17 4
43 18 2
43 19 1
43 20 5
43 21 2
43 22 7
43 23 6
43 24 7
43 25 9
43 26 3
43 27 3
43 29 10
43 30 9
43 31 2
43 32 6
43 33 8
43 37 10
43 38 4
43 39 2
43 41 1
43 42 2
44 2 2
44 3 8
44 5 1
44 7 9
44 8 4
44 9 9
44 10 10
44 11 8
44 12 9
44 13 4
44 14 5
44 15 10
44 16 6
44 17 9
44 18 2
44 21 2
44 22 4
44 23 7
44 24 2
44 25 6
44 26 9
44 27 8
44 28 9
44 29 10
44 30 8
44 31 9
44 32 2
44 33 4
44 34 2
44 35 10
44 36 3
44 37 3
44 38 8
44 39 7
44 40 10
44 42 8
44 43 7
45 0 9
45 1 10
45 3 4
45 4 10
45 5 3
45 6 2
45 7 4
45 8 1
45 9 8
45 10 2
45 11 9
45 13 9
45 15 1
45 16 7
45 17 5
45 19 2
45 20 5
45 22 4
45 23 4
45 24 4
45 25 6
45 26 5
45 27 2
45 28 2
45 32 6
45 33 10
45 34 2
45 35 9
45 37 4
45 38 4
45 39 7
45 41 10
45 42 8
45 44 3
46 0 2
46 1 6
46 2 1
46 3 7
46 5 9
46 6 9
46 7 10
46 8 8
46 9 2
46 10 4
46 11 6
46 12 5
46 13 6
46 18 1
46 19 6
46 20 5
46 21 6
46 22 2
46 23 10
46 24 3
46 25 10
46 27 8
46 28 7
46 29 8
46 30 2
46 31 6
46 32 3
46 33 9
46 34 3
46 35 1
46 36 2
46 37 8
46 38 5
46 39 8
46 40 2
46 41 1
46 42 1
46 43 5
46 44 8
46 45 3
47 0 1
47 1 8
47 2 5
47 3 5
47 5 10
47 6 1
47 7 2
47 8 7
47 9 3
47 10 8
47 11 4
47 12 7
47 14 5
47 15 6
47 16 8
47 17 4
47 18 1
47 19 8
47 20 7
47 21 3
47 22 5
47 24 7
47 27 4
47 28 8
47 29 5
47 31 7
47 32 6
47 33 3
47 34 4
47 36 8
47 38 7
47 39 10
47 40 3
47 41 8
47 42 9
47 43 3
47 44 10
47 45 3
47 46 1
48 0 6
48 1 3
48 2 3
48 3 6
48 4 8
48 5 10
48 6 3
48 7 3
48 8 8
48 9 3
48 10 2
48 11 4
48 12 4
48 13 2
48 15 3
48 16 10
48 17 6
48 19 9
48 20 4
48 21 5
48 22 3
48 23 9
48 24 5
48 25 5
48 26 5
48 27 7
48 30 2
48 32 5
48 33 6
48 35 1
48 36 9
48 38 3
48 40 8
48 41 1
48 43 9
48 44 5
48 45 9
48 46 8
48 47 10
49 0 10
49 1 7
49 3 1
49 4 4
49 5 9
49 7 4
49 9 3
49 10 6
49 12 10
49 13 9
49 14 9
49 15 4
49 16 7
49 17 1
49 18 1
49 19 8
49 20 10
49 21 5
49 22 7
49 24 2
49 26 2
49 28 4
49 29 7
49 30 1
49 31 1
49 32 2
49 33 9
49 34 1
49 35 3
49 36 8
49 37 8
49 38 7
49 41 8
49 42 7
49 43 5
49 44 8
49 45 5
49 46 4
49 47 9
49 48 1
50 0 4
50 1 2
50 2 8
50 4 7
50 5 7
50 6 3
50 9 9
50 10 3
50 11 7
50 14 4
50 15 10
50 16 1
50 17 2
50 20 3
50 21 8
50 22 9
50 23 3
50 24 7
50 25 7
50 26 8
50 27 8
50 28 4
50 29 6
50 30 9
50 31 9
50 32 1
50 33 9
50 34 8
50 36 2
50 37 10
50 38 7
50 39 1
50 41 4
50 42 7
50 43 4
50 45 3
50 46 8
50 47 8
50 48 1
50 49 9
51 0 10
51 2 2
51 4 9
51 5 5
51 6 2
51 8 5
51 10 3
51 11 3
51 12 10
51 13 9
51 14 8
51 15 10
51 16 10
51 17 7
51 18 4
51 19 4
51 20 7
51 21 10
51 22 1
51 23 5
51 24 10
51 26 10
51 28 8
51 29 5
51 30 1
51 31 7
51 33 2
51 34 1
51 36 1
51 37 4
51 38 3
51 39 1
51 40 9
51 41 7
51 42 2
51 43 4
51 44 1
51 46 1
51 47 5
51 48 7
51 49 8
52 0 2
52 2 4
52 3 7
52 4 7
52 5 6
52 6 2
52 7 4
52 8 1
52 9 8
52 10 1
52 11 1
52 12 8
52 13 8
52 15 4
52 18 8
52 19 5
52 20 5
52 21 1
52 22 1
52 23 9
52 24 9
52 25 5
52 26 7
52 27 2
52 28 3
52 29 8
52 31 5
52 32 2
52 33 9
52 34 2
52 35 8
52 36 7
52 37 2
52 38 9
52 40 3
52 41 5
52 42 10
52 43 4
52 44 8
52 45 10
52 46 4
52 48 5
52 49 7
52 50 2
53 0 4
53 1 6
53 2 8
53 3 6
53 4 8
53 5 5
53 7 9
53 8 1
53 9 2
53 10 7
53 11 5
53 12 9
53 13 7
53 14 3
53 15 7
53 16 1
53 17 3
53 18 10
53 19 4
53 20 10
53 21 6
53 22 7
53 23 3
53 24 4
53 25 5
53 26 4
53 27 4
53 28 1
53 29 1
53 30 10
53 31 1
53 32 7
53 33 10
53 34 7
53 35 2
53 38 7
53 39 3
53 40 2
53 41 4
53 42 2
53 43 4
53 44 5
53 47 8
53 48 3
53 50 7
53 51 3
54 0 8
54 2 5
54 3 7
54 4 4
54 5 3
54 8 1
54 10 1
54 11 9
54 13 5
54 14 10
54 15 10
54 17 8
54 18 6
54 19 2
54 20 1
54 22 10
54 23 9
54 24 9
54 25 1
54 26 4
54 27 2
54 28 4
54 29 1
54 30 3
54 32 3
54 33 5
54 34 3
54 35 4
54 36 1
54 37 5
54 39 1
54 40 10
54 41 9
54 42 1
54 43 3
54 44 8
54 45 5
54 46 9
54 47 10
54 48 8
54 49 9
54 50 7
54 51 4
54 52 2
55 0 1
55 2 7
55 3 10
55 4 10
55 6 6
55 7 2
55 8 9
55 9 1
55 10 10
55 11 8
55 12 7
55 13 5
55 14 2
55 15 4
55 16 4
55 17 6
55 18 6
55 19 7
55 20 5
55 21 4
55 22 2
55 23 2
55 26 9
55 27 9
55 29 5
55 30 5
55 31 5
55 32 8
55 33 6
55 34 10
55 35 1
55 36 1
55 37 1
55 38 6
55 39 4
55 40 1
55 41 10
55 42 9
55 43 6
55 44 8
55 46 9
55 48 6
55 49 8
55 50 2
55 51 9
55 52 5
55 53 1
56 0 6
56 1 2
56 2 5
56 3 1
56 4 4
56 5 9
56 6 2
56 7 4
56 8 9
56 11 7
56 12 10
56 13 5
56 15 7
56 17 2
56 18 7
56 19 3
56 20 10
56 21 10
56 22 5
56 24 2
56 27 2
56 29 5
56 30 8
56 31 1
56 32 3
56 33 4
56 35 5
56 36 6
56 39 9
56 40 5
56 41 5
56 42 1
56 43 1
56 44 6
56 45 4
56 47 9
56 49 2
56 50 3
56 51 4
56 52 5
56 53 8
56 54 6
56 55 3
57 0 1
57 1 1
57 2 5
57 3 1
57 4 7
57 7 9
57 9 10
57 11 6
57 12 2
57 14 5
57 15 3
57 16 1
57 18 9
57 19 10
57 20 3
57 21 5
57 22 7
57 23 1
57 24 6
57 25 7
57 26 10
57 27 9
57 28 7
57 30 4
57 31 6
57 32 2
57 33 2
57 34 3
57 35 3
57 36 10
57 37 3
57 38 9
57 39 10
57 40 9
57 41 2
57 42 6
57 43 10
57 45 3
57 47 4
57 48 2
57 50 9
57 51 7
57 52 2
57 53 1
57 54 8
57 55 2
58 1 10
58 2 9
58 4 7
58 5 6
58 6 2
58 7 4
58 9 5
58 10 5
58 11 7
58 12 5
58 13 8
58 14 5
58 16 5
58 17 1
58 18 1
58 19 10
58 20 8
58 21 6
58 23 5
58 24 5
58 26 3
58 27 10
58 28 2
58 29 3
58 30 5
58 32 5
58 34 2
58 35 6
58 37 1
58 38 7
58 39 6
58 41 4
58 42 8
58 43 9
58 44 6
58 45 10
58 47 5
58 50 5
58 51 8
58 52 3
58 53 7
58 54 4
58 56 2
58 57 10
59 0 2
59 1 8
59 2 9
59 3 7
59 4 7
59 6 4
59 7 4
59 9 9
59 10 4
59 11 8
59 12 3
59 15 2
59 17 1
59 18 10
59 19 7
59 20 8
59 21 9
59 22 9
59 23 7
59 24 2
59 25 8
59 26 2
59 27 10
59 29 5
59 30 10
59 31 1
59 33 10
59 34 2
59 35 6
59 36 4
59 37 9
59 38 7
59 39 3
59 40 5
59 41 8
59 42 7
59 44 10
59 46 1
59 47 9
59 48 7
59 50 9
59 51 3
59 52 3
59 54 4
59 55 10
59 56 3
59 57 4
60 0 10
60 1 3
60 2 6
60 3 4
60 4 3
60 6 6
60 7 4
60 8 9
60 9 10
60 10 1
60 11 8
60 12 1
60 14 8
60 15 2
60 17 4
60 18 7
60 19 3
60 20 8
60 21 2
60 22 7
60 24 9
60 25 4
60 27 10
60 28 1
60 29 5
60 30 6
60 31 10
60 32 4
60 34 5
60 36 6
60 37 1
60 38 1
60 39 10
60 40 7
60 42 9
60 43 3
60 44 5
60 46 10
60 48 2
60 49 10
60 50 4
60 52 3
60 53 7
60 54 8
60 55 5
60 56 10
60 57 2
60 58 4
60 59 8
61 0 3
61 1 2
61 2 8
61 3 10
61 4 5
61 7 3
61 8 10
61 9 9
61 10 3
61 11 2
61 13 8
61 14 6
61 15 2
61 16 2
61 17 3
61 18 7
61 19 4
61 20 3
61 22 9
61 23 6
61 25 1
61 26 2
61 27 7
61 28 10
61 30 2
61 31 8
61 32 3
61 34 1
61 35 6
61 36 10
61 37 10
61 38 3
61 39 7
61 40 9
61 41 4
61 42 8
61 43 3
61 45 4
61 46 6
61 49 9
61 51 5
61 52 3
61 55 6
61 56 10
61 57 8
61 58 7
61 60 4
62 0 5
62 1 4
62 2 7
62 3 5
62 4 5
62 5 8
62 6 7
62 7 7
62 8 7
62 9 10
62 10 7
62 11 4
62 12 9
62 14 2
62 15 2
62 16 7
62 17 3
62 19 9
62 23 4
62 25 9
62 26 7
62 27 6
62 28 6
62 29 2
62 30 7
62 31 10
62 33 10
62 34 5
62 35 3
62 36 4
62 38 8
62 39 3
62 40 7
62 42 3
62 43 8
62 45 2
62 46 8
62 47 9
62 49 9
62 52 1
62 53 10
62 54 2
62 55 2
62 56 9
62 57 6
62 58 10
62 59 8
62 60 4
63 0 6
63 1 3
63 2 10
63 3 2
63 4 3
63 5 8
63 6 9
63 7 3
63 8 2
63 9 8
63 10 10
63 11 3
63 12 5
63 13 1
63 15 1
63 16 2
63 17 2
63 18 7
63 21 9
63 22 9
63 23 6
63 24 7
63 26 5
63 27 8
63 28 2
63 29 1
63 30 10
63 34 5
63 35 6
63 38 2
63 39 8
63 40 7
63 41 9
63 43 1
63 44 7
63 45 7
63 46 5
63 47 6
63 48 10
63 49 9
63 50 3
63 51 6
63 52 8
63 53 6
63 54 1
63 55 7
63 56 5
63 57 1
63 58 4
63 59 7
63 60 10
63 61 10
63 62 2
64 0 1
64 1 10
64 2 9
64 3 8
64 4 3
64 6 10
64 7 6
64 8 6
64 9 7
64 10 1
64 11 1
64 12 5
64 13 3
64 14 7
64 16 3
64 18 5
64 19 10
64 20 2
64 21 2
64 24 3
64 25 6
64 27 6
64 28 10
64 29 3
64 30 10
64 32 6
64 34 3
64 35 10
64 36 10
64 38 6
64 39 7
64 41 4
64 43 6
64 44 9
64 45 9
64 46 5
64 47 5
64 48 7
64 49 6
64 50 7
64 51 3
64 52 5
64 53 6
64 55 8
64 57 2
64 58 1
64 59 2
64 60 9
64 62 5
64 63 9
65 1 8
65 2 3
65 3 8
65 4 8
65 6 7
65 7 2
65 8 10
65 9 5
65 10 7
65 11 10
65 12 10
65 14 8
65 16 1
65 17 6
65 18 9
65 19 1
65 21 2
65 23 6
65 24 10
65 26 3
65 27 10
65 28 8
65 29 8
65 30 3
65 31 4
65 32 3
65 33 1
65 34 4
65 35 2
65 36 4
65 38 6
65 39 4
65 40 1
65 41 5
65 43 6
65 44 4
65 45 2
65 46 1
65 47 2
65 48 6
65 50 7
65 51 3
65 52 10
65 53 2
65 55 5
65 56 8
65 57 2
65 58 7
65 59 4
65 60 4
65 61 1
65 63 4
66 0 7
66 1 8
66 2 10
66 3 10
66 4 6
66 5 5
66 6 8
66 8 7
66 10 8
66 11 3
66 12 8
66 13 4
66 14 10
66 15 1
66 17 5
66 18 3
66 19 2
66 20 3
66 21 5
66 22 6
66 23 7
66 24 6
66 25 5
66 26 5
66 27 7
66 28 3
66 29 3
66 30 8
66 31 6
66 33 5
66 35 7
66 36 1
66 37 6
66 38 7
66 40 6
66 41 7
66 42 9
66 43 9
66 46 8
66 48 2
66 50 10
66 51 4
66 52 6
66 53 10
66 55 9
66 56 3
66 57 10
66 58 7
66 59 1
66 60 6
66 62 2
66 65 2
67 0 3
67 2 4
67 3 6
67 4 7
67 5 9
67 6 5
67 9 3
67 10 9
67 12 10
67 13 10
67 14 3
67 15 1
67 16 4
67 17 7
67 18 2
67 19 7
67 20 8
67 21 3
67 22 3
67 23 4
67 25 8
67 26 1
67 27 5
67 28 3
67 29 6
67 30 9
67 31 6
67 32 10
67 34 4
67 35 5
67 36 2
67 37 8
67 40 10
67 41 9
67 42 10
67 43 10
67 44 3
67 46 2
67 47 2
67 48 8
67 49 9
67 50 7
67 51 6
67 52 3
67 53 3
67 54 1
67 55 3
67 56 1
67 57 7
67 58 6
67 60 4
67 61 3
67 62 2
67 64 5
67 65 6
67 66 4
68 1 2
68 2 10
68 3 6
68 4 10
68 6 9
68 7 3
68 8 10
68 9 4
68 10 10
68 12 8
68 13 2
68 15 5
68 16 6
68 18 2
68 19 2
68 20 5
68 22 10
68 24 8
68 25 3
68 26 4
68 27 4
68 28 9
68 29 8
68 30 2
68 31 5
68 32 3
68 33 5
68 34 2
68 35 10
68 36 3
68 37 5
68 38 9
68 39 6
68 41 4
68 42 7
68 43 6
68 44 8
68 45 2
68 46 2
68 49 6
68 50 1
68 54 10
68 56 3
68 57 3
68 58 6
68 59 2
68 60 6
68 61 8
68 62 1
68 64 5
68 65 10
68 67 9
69 0 3
69 1 2
69 2 6
69 3 1
69 4 1
69 5 7
69 7 2
69 8 9
69 9 1
69 10 1
69 11 6
69 13 8
69 14 9
69 15 2
69 16 2
69 17 4
69 19 3
69 20 8
69 21 2
69 22 10
69 23 7
69 24 10
69 25 7
69 27 2
69 28 2
69 29 10
69 30 3
69 31 8
69 32 10
69 33 4
69 34 3
69 35 9
69 36 8
69 37 4
69 38 3
69 39 2
69 40 4
69 41 8
69 42 5
69 43 9
69 45 10
69 46 2
69 48 7
69 49 9
69 50 7
69 51 3
69 53 3
69 54 9
69 55 7
69 56 8
69 59 7
69 60 1
69 62 10
69 64 4
69 65 8
69 67 10
69 68 4
